20
Single-wall carbon nanotube armchair (5,5), one translational period
C -1.695000 2.935826 -0.000000
C 3.390000 0.000000 0.000000
C 2.268353 2.519261 0.000000
C 1.047568 3.224082 0.000000
C -2.742568 1.992592 0.000000
C -3.315921 -0.704821 0.000000
C -2.742568 -1.992592 0.000000
C -0.354352 -3.371430 0.000000
C 1.047568 -3.224082 0.000000
C 3.096919 -1.378837 0.000000
C -1.047568 3.224082 1.229756
C -3.096919 1.378837 1.229756
C -3.390000 0.000000 1.229756
C -2.268353 -2.519261 1.229756
C -1.047568 -3.224082 1.229756
C 1.695000 -2.935826 1.229756
C 2.742568 -1.992592 1.229756
C 3.315921 0.704821 1.229756
C 2.742568 1.992592 1.229756
C 0.354352 3.371430 1.229756
